************************************************************************
file with basedata            : md350_.bas
initial value random generator: 1893291323
************************************************************************
projects                      :  1
jobs (incl. supersource/sink ):  22
horizon                       :  159
RESOURCES
  - renewable                 :  2   R
  - nonrenewable              :  2   N
  - doubly constrained        :  0   D
************************************************************************
PROJECT INFORMATION:
pronr.  #jobs rel.date duedate tardcost  MPM-Time
    1     20      0       29        2       29
************************************************************************
PRECEDENCE RELATIONS:
jobnr.    #modes  #successors   successors
   1        1          3           2   3   4
   2        3          3           6  12  13
   3        3          3           9  12  15
   4        3          3           5   9  13
   5        3          2           6  14
   6        3          2           7  16
   7        3          1           8
   8        3          2          10  11
   9        3          1          16
  10        3          3          15  18  20
  11        3          3          15  17  20
  12        3          2          14  18
  13        3          1          17
  14        3          2          19  20
  15        3          2          19  21
  16        3          1          17
  17        3          1          18
  18        3          2          19  21
  19        3          1          22
  20        3          1          22
  21        3          1          22
  22        1          0        
************************************************************************
REQUESTS/DURATIONS:
jobnr. mode duration  R 1  R 2  N 1  N 2
------------------------------------------------------------------------
  1      1     0       0    0    0    0
  2      1     6       8    5    0    6
         2    10       3    3    0    4
         3    10       3    3    2    0
  3      1     3       5   10    0    6
         2     6       3    7    7    0
         3     9       2    6    7    0
  4      1     2      10    9    0    9
         2     4      10    9    0    7
         3     9      10    8    0    6
  5      1     2       9   10    4    0
         2     4       9    7    4    0
         3    10       9    3    0    6
  6      1     1       7    8    0    6
         2     5       6    8    6    0
         3     7       4    7    3    0
  7      1     3       7    6    0    6
         2     3       7    5    8    0
         3     7       6    5    6    0
  8      1     6       9   10    7    0
         2    10       8    6    0    4
         3    10       7    8    7    0
  9      1     2       6    8    7    0
         2     3       4    4    0    2
         3     7       3    4    0    2
 10      1     3       6    8    5    0
         2     4       5    7    0    8
         3     6       4    3    3    0
 11      1     4       6    8    0    7
         2     5       6    7    7    0
         3     6       3    7    0    5
 12      1     6       8   10    8    0
         2     8       6    7    6    0
         3    10       4    7    0    7
 13      1     2       8    6    0    3
         2     4       8    5    0    2
         3     5       8    5    2    0
 14      1     4       5    1    0    4
         2     8       5    1    8    0
         3     8       4    1    9    0
 15      1     1       9    6    0   10
         2     9       5    4    0    3
         3     9       5    5    3    0
 16      1     3       5    3    0    7
         2     5       4    3    0    6
         3     6       1    1    4    0
 17      1     2       9    3    0    6
         2     6       8    3    0    5
         3     7       3    2    0    5
 18      1     3       8    6    7    0
         2     7       8    5    7    0
         3     8       8    3    0    9
 19      1     4       4    7    6    0
         2     7       4    6    0    5
         3     8       3    6    6    0
 20      1     4       7    5    6    0
         2     7       3    4    4    0
         3     9       2    3    1    0
 21      1     1       6    5    7    0
         2     6       5    4    7    0
         3     8       4    2    0    3
 22      1     0       0    0    0    0
************************************************************************
RESOURCEAVAILABILITIES:
  R 1  R 2  N 1  N 2
   19   17  105  114
************************************************************************
MAXIMAL LAGS:
from  to  type  delay
    1   22   ES      0
    1    2   ES      0
    2   22   ES      0
    1    3   ES      0
    3   22   ES      0
    1    4   ES      0
    4   22   ES      0
    1    5   ES      0
    5   22   ES      0
    1    6   ES      0
    6   22   ES      0
    1    7   ES      0
    7   22   ES      0
    1    8   ES      0
    8   22   ES      0
    1    9   ES      0
    9   22   ES      0
    1   10   ES      0
   10   22   ES      0
    1   11   ES      0
   11   22   ES      0
    1   12   ES      0
   12   22   ES      0
    1   13   ES      0
   13   22   ES      0
    1   14   ES      0
   14   22   ES      0
    1   15   ES      0
   15   22   ES      0
    1   16   ES      0
   16   22   ES      0
    1   17   ES      0
   17   22   ES      0
    1   18   ES      0
   18   22   ES      0
    1   19   ES      0
   19   22   ES      0
    1   20   ES      0
   20   22   ES      0
    1   21   ES      0
   21   22   ES      0
    1   22   ES      0
    2    6   SS      2
    2    6   SE     -7
    2    6   ES     -9
    2    6   EE     -5
    2   12   SS    -12
    2   12   SE      2
    2   12   ES     -4
    2   12   EE     -8
    2   13   SS     -5
    2   13   SE     -1
    2   13   ES     12
    2   13   EE     10
    3    9   SS      6
    3    9   SE     -9
    3    9   ES     -4
    3    9   EE     -7
    3   12   SS      0
    3   12   SE     -9
    3   12   ES     -3
    3   12   EE    -11
    3   15   SS      9
    3   15   SE     -4
    3   15   ES      8
    3   15   EE      5
    4    5   SS      6
    4    5   SE     -6
    4    5   ES     -5
    4    5   EE     -7
    4    9   SS      1
    4    9   SE     -9
    4    9   ES     -3
    4    9   EE     12
    4   13   SS     -2
    4   13   SE     -3
    4   13   ES     -6
    4   13   EE     10
    5    6   SS    -11
    5    6   SE      2
    5    6   ES      6
    5    6   EE      1
    5   14   SS     -5
    5   14   SE      9
    5   14   ES     12
    5   14   EE      2
    6    7   SS     -5
    6    7   SE     -9
    6    7   ES      9
    6    7   EE    -12
    6   16   SS    -12
    6   16   SE      5
    6   16   ES      8
    6   16   EE      9
    7    8   SS     11
    7    8   SE     -9
    7    8   ES      3
    7    8   EE      4
    8   10   SS     -1
    8   10   SE     -7
    8   10   ES     -8
    8   10   EE     -9
    8   11   SS    -10
    8   11   SE     -1
    8   11   ES     11
    8   11   EE      5
    9   16   SS      2
    9   16   SE    -10
    9   16   ES      5
    9   16   EE     -4
   10   15   SS     -2
   10   15   SE     -7
   10   15   ES     -6
   10   15   EE     -1
   10   18   SS      9
   10   18   SE     -4
   10   18   ES     11
   10   18   EE     -7
   10   20   SS      1
   10   20   SE      4
   10   20   ES      2
   10   20   EE     -4
   11   15   SS     -4
   11   15   SE      9
   11   15   ES      8
   11   15   EE      9
   11   17   SS      3
   11   17   SE    -11
   11   17   ES     -9
   11   17   EE      3
   11   20   SS     -6
   11   20   SE      8
   11   20   ES     -7
   11   20   EE      8
   12   14   SS      9
   12   14   SE    -12
   12   14   ES     10
   12   14   EE      4
   12   18   SS      1
   12   18   SE     -2
   12   18   ES     11
   12   18   EE     -8
   13   17   SS     -5
   13   17   SE      2
   13   17   ES      2
   13   17   EE      2
   14   19   SS     -8
   14   19   SE      6
   14   19   ES      1
   14   19   EE      0
   14   20   SS      9
   14   20   SE     -2
   14   20   ES      1
   14   20   EE     -6
   15   19   SS     -6
   15   19   SE      2
   15   19   ES    -12
   15   19   EE     -9
   15   21   SS     -4
   15   21   SE    -11
   15   21   ES      8
   15   21   EE    -11
   16   17   SS     12
   16   17   SE      8
   16   17   ES     10
   16   17   EE     -1
   17   18   SS     -8
   17   18   SE      2
   17   18   ES      5
   17   18   EE    -10
   18   19   SS    -12
   18   19   SE     -1
   18   19   ES     -2
   18   19   EE      8
   18   21   SS      4
   18   21   SE      9
   18   21   ES    -11
   18   21   EE    -11
************************************************************************
